50
125 125
1 100 471
2 98 196
3 94 63
4 89 903
5 88 655
6 87 88
7 87 548
8 86 887
9 84 493
10 81 784
11 81 574
12 80 717
13 79 704
14 76 910
15 74 124
16 74 758
17 73 315
18 73 73
19 72 974
20 69 892
21 69 306
22 67 998
23 65 881
24 65 178
25 64 738
26 63 993
27 62 741
28 60 266
29 59 744
30 57 164
31 53 659
32 53 296
33 51 735
34 48 551
35 47 62
36 46 978
37 43 605
38 41 408
39 41 320
40 40 109
41 40 484
42 38 786
43 26 152
44 26 845
45 25 321
46 25 502
47 21 942
48 17 836
49 15 510
50 13 110
